(declare-const delta_tmp Int)
(declare-const delta_j Int)
(declare-const delta_tmp___0 Int)
(declare-const delta_i Int)
(declare-const delta_y Int)
(declare-const delta_x Int)
(assert (exists
         ((|tmp___0'?1| Int) (|y'?2| Int) (|x'?3| Int) (phi_x?4 Int)
            (havoc?5 Int) (|tmp'?6| Int) (|S2,0?7| Real) (|S1,1?8| Real)
            (|j'?9| Int) (|S1,0?10| Real) (|i'?11| Int) (KSUM2?12 Int)
            (KSUM1?13 Int) (R2?14 Int) (|K1,0?15| Int) (K?16 Int)
            (havoc?17 Int) (|tmp'?18| Int) (|j'?19| Int) (|i'?20| Int)
            (i?21 Int) (j?22 Int) (tmp?23 Int) (x?24 Int) (y?25 Int)
            (tmp___0?26 Int))
         (and (<= (- i?21) 0) (= j?22 0) (<= (- x?24) 0) (<= (- y?25) 0)
                (= (+ (- y?25) x?24) 0) (= j?22 0) (<= (+ x?24 -100000) 0)
                (<= (+ y?25 -100000) 0) (or (< havoc?17 0) (< 0 havoc?17))
                (<= (- K?16) 0) (<= (- |K1,0?15|) 0)
                (= (+ |K1,0?15| (- K?16)) 0)
                (or (and (= (- K?16) 0) (= (+ R2?14 1) 0))
                      (and (or (< (- K?16) 0) (< 0 (- K?16)))
                             (or (< (+ R2?14 1) 0) (< 0 (+ R2?14 1)))))
                (or (and (= (+ (- KSUM2?12) KSUM1?13) 0)
                           (= (+ (- R2?14) -1) 0))
                      (and (or (< (+ (- KSUM2?12) KSUM1?13) 0)
                                 (< 0 (+ (- KSUM2?12) KSUM1?13)))
                             (or (< (+ (- R2?14) -1) 0)
                                   (< 0 (+ (- R2?14) -1)))))
                (<= (+ KSUM1?13 (- K?16)) 0) (<= (+ KSUM2?12 (- K?16)) 0)
                (= (+ (- |S1,0?10|) |i'?11| (- |K1,0?15|)) 0)
                (= (+ (- |S1,1?8|) |j'?9|) 0) (= (+ (- |S2,0?7|) |j'?9|) 0)
                (= (+ (- KSUM1?13) |K1,0?15|) 0) (= (- KSUM2?12) 0)
                (= (+ |S1,0?10| (- i?21)) 0) (= (+ |S1,1?8| (- j?22)) 0)
                (or (and (= (+ |S2,0?7| (- j?22)) 0) (= (+ R2?14 1) 0))
                      (and (= |S2,0?7| 0)
                             (or (<= 0 (+ KSUM2?12 (- KSUM1?13)))
                                   (<= (+ (- |K1,0?15|) 1) 0)) (= R2?14 0)))
                (or (and (= K?16 0) (= (+ (- |tmp'?6|) tmp?23) 0)
                           (= (+ (- |j'?9|) j?22) 0)
                           (= (+ (- |i'?11|) i?21) 0))
                      (and (<= (+ (- K?16) 1) 0) (= (+ (- y?25) x?24) 0)
                             (= j?22 0) (<= (- i?21) 0) (<= (- y?25) 0)
                             (= (+ (- y?25) x?24) 0) (= |j'?9| 0)
                             (<= (+ (- |i'?11|) 1) 0) (<= (- y?25) 0)))
                (= (+ |i'?11| (- K?16) (- i?21)) 0) (= (+ |j'?9| (- j?22)) 0)
                (<= (- K?16) 0) (<= (- |i'?11|) 0) (= |j'?9| 0)
                (<= (- x?24) 0) (<= (- y?25) 0) (= (+ (- y?25) x?24) 0)
                (= |j'?9| 0) (= havoc?5 0)
                (or (and (<= (+ |j'?9| (- |i'?11|)) 0)
                           (= (+ (- phi_x?4) x?24 1) 0))
                      (and (< (+ (- |j'?9|) |i'?11|) 0)
                             (= (+ (- phi_x?4) x?24) 0)))
                (= (+ |tmp___0'?1| (- havoc?17)) 0)
                (= (+ |tmp'?18| (- havoc?5)) 0) (= (+ |j'?19| (- |j'?9|)) 0)
                (= (+ |i'?20| (- |i'?11|)) 0) (= (+ |y'?2| (- y?25) -1) 0)
                (= (+ |x'?3| (- phi_x?4)) 0) (= delta_x (+ |x'?3| (- x?24)))
                (= delta_y (+ |y'?2| (- y?25)))
                (= delta_i (+ |i'?20| (- i?21)))
                (= delta_j (+ |j'?19| (- j?22)))
                (= delta_tmp (+ |tmp'?18| (- tmp?23)))
                (= delta_tmp___0 (+ |tmp___0'?1| (- tmp___0?26))))))
(check-sat)
